# Solution for model r10_t9_m2_7
# Finished Task: 9 / 9
# Makespan: 473.0, Total Distance: 488.0, Total Time: 0.0147
# R O S F
0 0 15 0.0 0.0
1 1 11 0.0 0.0
2 2 16 0.0 0.0
3 3 13 0.0 0.0
4 4 18 0.0 0.0
5 5 -1 0.0 0.0
6 6 -1 0.0 0.0
7 7 -1 0.0 0.0
8 8 -1 0.0 0.0
9 9 -1 0.0 0.0
10 0 -1 367.0 399.0
11 1 14 188.0 223.0
12 1 -1 436.0 473.0
13 3 -1 379.0 403.0
14 1 12 346.0 367.0
15 0 17 123.0 162.0
16 2 -1 399.0 436.0
17 0 10 311.0 331.0
18 4 -1 303.0 338.0
